<?xml version = "1.0" encoding="UTF-8" standalone="yes"?>
<CPLEXSolution version="1.2">
 <header
   problemName="ilog.cplex"
   solutionName="incumbent"
   solutionIndex="-1"
   objectiveValue="359"
   solutionTypeValue="3"
   solutionTypeString="primal"
   solutionStatusValue="101"
   solutionStatusString="integer optimal solution"
   solutionMethodString="mip"
   primalFeasible="1"
   dualFeasible="1"
   MIPNodes="0"
   MIPIterations="5"
   writeLevel="1"/>
 <quality
   epInt="1.0000000000000001e-05"
   epRHS="9.9999999999999995e-07"
   maxIntInfeas="0"
   maxPrimalInfeas="0"
   maxX="1"
   maxSlack="13"/>
 <linearConstraints>
  <constraint index="0" slack="0"/>
  <constraint index="1" slack="1"/>
  <constraint index="2" slack="0"/>
  <constraint index="3" slack="6"/>
  <constraint index="4" slack="13"/>
  <constraint index="5" slack="1"/>
  <constraint index="6" slack="0"/>
  <constraint index="7" slack="0"/>
  <constraint index="8" slack="0"/>
  <constraint index="9" slack="0"/>
  <constraint index="10" slack="0"/>
  <constraint index="11" slack="0"/>
  <constraint index="12" slack="0"/>
  <constraint index="13" slack="0"/>
  <constraint index="14" slack="0"/>
  <constraint index="15" slack="0"/>
  <constraint index="16" slack="0"/>
  <constraint index="17" slack="1"/>
  <constraint index="18" slack="1"/>
  <constraint index="19" slack="0"/>
  <constraint index="20" slack="0"/>
  <constraint index="21" slack="0"/>
  <constraint index="22" slack="0"/>
  <constraint index="23" slack="0"/>
  <constraint index="24" slack="0"/>
  <constraint index="25" slack="0"/>
  <constraint index="26" slack="0"/>
  <constraint index="27" slack="1"/>
  <constraint index="28" slack="0"/>
  <constraint index="29" slack="0"/>
  <constraint index="30" slack="0"/>
  <constraint index="31" slack="0"/>
  <constraint index="32" slack="0"/>
  <constraint index="33" slack="0"/>
  <constraint index="34" slack="0"/>
 </linearConstraints>
 <variables>
  <variable name="x_ijk_0_0_0" index="0" value="-0"/>
  <variable name="x_ijk_0_1_0" index="1" value="0"/>
  <variable name="x_ijk_0_2_0" index="2" value="0"/>
  <variable name="x_ijk_0_3_0" index="3" value="-0"/>
  <variable name="x_ijk_1_0_0" index="4" value="0"/>
  <variable name="x_ijk_1_1_0" index="5" value="-0"/>
  <variable name="x_ijk_1_2_0" index="6" value="0"/>
  <variable name="x_ijk_1_3_0" index="7" value="1"/>
  <variable name="x_ijk_2_0_0" index="8" value="0"/>
  <variable name="x_ijk_2_1_0" index="9" value="0"/>
  <variable name="x_ijk_2_2_0" index="10" value="0"/>
  <variable name="x_ijk_2_3_0" index="11" value="0"/>
  <variable name="x_ijk_2_4_0" index="12" value="1"/>
  <variable name="x_ijk_3_0_0" index="13" value="0"/>
  <variable name="x_ijk_3_1_0" index="14" value="1"/>
  <variable name="x_ijk_3_2_0" index="15" value="-0"/>
  <variable name="x_ijk_3_3_0" index="16" value="0"/>
  <variable name="x_ijk_3_4_0" index="17" value="0"/>
  <variable name="x_ijk_4_0_0" index="18" value="0"/>
  <variable name="x_ijk_4_1_0" index="19" value="0"/>
  <variable name="x_ijk_4_2_0" index="20" value="-0"/>
  <variable name="x_ijk_4_3_0" index="21" value="1"/>
  <variable name="x_ijk_4_4_0" index="22" value="0"/>
  <variable name="x_ijk_5_0_0" index="23" value="0"/>
  <variable name="x_ijk_5_1_0" index="24" value="-0"/>
  <variable name="x_ijk_5_2_0" index="25" value="0"/>
  <variable name="x_ijk_5_3_0" index="26" value="1"/>
  <variable name="x_ijk_5_4_0" index="27" value="-0"/>
  <variable name="x_ijk_0_0_1" index="28" value="0"/>
  <variable name="x_ijk_0_1_1" index="29" value="0"/>
  <variable name="x_ijk_0_2_1" index="30" value="0"/>
  <variable name="x_ijk_0_3_1" index="31" value="1"/>
  <variable name="x_ijk_1_0_1" index="32" value="0"/>
  <variable name="x_ijk_1_1_1" index="33" value="1"/>
  <variable name="x_ijk_1_2_1" index="34" value="0"/>
  <variable name="x_ijk_1_3_1" index="35" value="0"/>
  <variable name="x_ijk_2_0_1" index="36" value="0"/>
  <variable name="x_ijk_2_1_1" index="37" value="0"/>
  <variable name="x_ijk_2_2_1" index="38" value="1"/>
  <variable name="x_ijk_2_3_1" index="39" value="0"/>
  <variable name="x_ijk_2_4_1" index="40" value="0"/>
  <variable name="x_ijk_3_0_1" index="41" value="0"/>
  <variable name="x_ijk_3_1_1" index="42" value="0"/>
  <variable name="x_ijk_3_2_1" index="43" value="1"/>
  <variable name="x_ijk_3_3_1" index="44" value="0"/>
  <variable name="x_ijk_3_4_1" index="45" value="0"/>
  <variable name="x_ijk_4_0_1" index="46" value="0"/>
  <variable name="x_ijk_4_1_1" index="47" value="0"/>
  <variable name="x_ijk_4_2_1" index="48" value="1"/>
  <variable name="x_ijk_4_3_1" index="49" value="0"/>
  <variable name="x_ijk_4_4_1" index="50" value="0"/>
  <variable name="x_ijk_5_0_1" index="51" value="0"/>
  <variable name="x_ijk_5_1_1" index="52" value="0"/>
  <variable name="x_ijk_5_2_1" index="53" value="0"/>
  <variable name="x_ijk_5_3_1" index="54" value="0"/>
  <variable name="x_ijk_5_4_1" index="55" value="1"/>
  <variable name="x_ijk_0_0_2" index="56" value="0"/>
  <variable name="x_ijk_0_1_2" index="57" value="0"/>
  <variable name="x_ijk_0_2_2" index="58" value="1"/>
  <variable name="x_ijk_0_3_2" index="59" value="0"/>
  <variable name="x_ijk_1_0_2" index="60" value="0"/>
  <variable name="x_ijk_1_1_2" index="61" value="0"/>
  <variable name="x_ijk_1_2_2" index="62" value="1"/>
  <variable name="x_ijk_1_3_2" index="63" value="0"/>
  <variable name="x_ijk_2_0_2" index="64" value="0"/>
  <variable name="x_ijk_2_1_2" index="65" value="0"/>
  <variable name="x_ijk_2_2_2" index="66" value="0"/>
  <variable name="x_ijk_2_3_2" index="67" value="0"/>
  <variable name="x_ijk_2_4_2" index="68" value="0"/>
  <variable name="x_ijk_3_0_2" index="69" value="0"/>
  <variable name="x_ijk_3_1_2" index="70" value="1"/>
  <variable name="x_ijk_3_2_2" index="71" value="0"/>
  <variable name="x_ijk_3_3_2" index="72" value="0"/>
  <variable name="x_ijk_3_4_2" index="73" value="0"/>
  <variable name="x_ijk_4_0_2" index="74" value="0"/>
  <variable name="x_ijk_4_1_2" index="75" value="0"/>
  <variable name="x_ijk_4_2_2" index="76" value="0"/>
  <variable name="x_ijk_4_3_2" index="77" value="0"/>
  <variable name="x_ijk_4_4_2" index="78" value="0"/>
  <variable name="x_ijk_5_0_2" index="79" value="0"/>
  <variable name="x_ijk_5_1_2" index="80" value="0"/>
  <variable name="x_ijk_5_2_2" index="81" value="0"/>
  <variable name="x_ijk_5_3_2" index="82" value="0"/>
  <variable name="x_ijk_5_4_2" index="83" value="1"/>
  <variable name="x_ijk_0_0_3" index="84" value="0"/>
  <variable name="x_ijk_0_1_3" index="85" value="0"/>
  <variable name="x_ijk_0_2_3" index="86" value="1"/>
  <variable name="x_ijk_0_3_3" index="87" value="0"/>
  <variable name="x_ijk_1_0_3" index="88" value="0"/>
  <variable name="x_ijk_1_1_3" index="89" value="0"/>
  <variable name="x_ijk_1_2_3" index="90" value="0"/>
  <variable name="x_ijk_1_3_3" index="91" value="1"/>
  <variable name="x_ijk_2_0_3" index="92" value="0"/>
  <variable name="x_ijk_2_1_3" index="93" value="0"/>
  <variable name="x_ijk_2_2_3" index="94" value="0"/>
  <variable name="x_ijk_2_3_3" index="95" value="0"/>
  <variable name="x_ijk_2_4_3" index="96" value="0"/>
  <variable name="x_ijk_3_0_3" index="97" value="0"/>
  <variable name="x_ijk_3_1_3" index="98" value="0"/>
  <variable name="x_ijk_3_2_3" index="99" value="0"/>
  <variable name="x_ijk_3_3_3" index="100" value="0"/>
  <variable name="x_ijk_3_4_3" index="101" value="1"/>
  <variable name="x_ijk_4_0_3" index="102" value="1"/>
  <variable name="x_ijk_4_1_3" index="103" value="0"/>
  <variable name="x_ijk_4_2_3" index="104" value="0"/>
  <variable name="x_ijk_4_3_3" index="105" value="0"/>
  <variable name="x_ijk_4_4_3" index="106" value="0"/>
  <variable name="x_ijk_5_0_3" index="107" value="0"/>
  <variable name="x_ijk_5_1_3" index="108" value="0"/>
  <variable name="x_ijk_5_2_3" index="109" value="0"/>
  <variable name="x_ijk_5_3_3" index="110" value="1"/>
  <variable name="x_ijk_5_4_3" index="111" value="0"/>
  <variable name="x_ijk_0_0_4" index="112" value="0"/>
  <variable name="x_ijk_0_1_4" index="113" value="0"/>
  <variable name="x_ijk_0_2_4" index="114" value="0"/>
  <variable name="x_ijk_0_3_4" index="115" value="1"/>
  <variable name="x_ijk_1_0_4" index="116" value="0"/>
  <variable name="x_ijk_1_1_4" index="117" value="1"/>
  <variable name="x_ijk_1_2_4" index="118" value="0"/>
  <variable name="x_ijk_1_3_4" index="119" value="0"/>
  <variable name="x_ijk_2_0_4" index="120" value="0"/>
  <variable name="x_ijk_2_1_4" index="121" value="0"/>
  <variable name="x_ijk_2_2_4" index="122" value="1"/>
  <variable name="x_ijk_2_3_4" index="123" value="0"/>
  <variable name="x_ijk_2_4_4" index="124" value="0"/>
  <variable name="x_ijk_3_0_4" index="125" value="0"/>
  <variable name="x_ijk_3_1_4" index="126" value="0"/>
  <variable name="x_ijk_3_2_4" index="127" value="1"/>
  <variable name="x_ijk_3_3_4" index="128" value="0"/>
  <variable name="x_ijk_3_4_4" index="129" value="0"/>
  <variable name="x_ijk_4_0_4" index="130" value="1"/>
  <variable name="x_ijk_4_1_4" index="131" value="0"/>
  <variable name="x_ijk_4_2_4" index="132" value="0"/>
  <variable name="x_ijk_4_3_4" index="133" value="0"/>
  <variable name="x_ijk_4_4_4" index="134" value="0"/>
  <variable name="x_ijk_5_0_4" index="135" value="0"/>
  <variable name="x_ijk_5_1_4" index="136" value="0"/>
  <variable name="x_ijk_5_2_4" index="137" value="0"/>
  <variable name="x_ijk_5_3_4" index="138" value="0"/>
  <variable name="x_ijk_5_4_4" index="139" value="1"/>
 </variables>
</CPLEXSolution>
